c This is an instance of the exact track of PACE 2020 Challenge, see https://pacechallenge.org/2020/ 
c TYPE: generated 
c ORIGIN: Python networkx package 
c DESCRIPTION: A cycle graph on p nodes with chords joining each vertex x to its inverse modulo p. This graph is a (mildly explicit) 3-regular expander. Generated using chordal_cycle_graph function from Python’s networkx package 
p tdp 457 684
1 2
1 3
2 345
3 4
4 5
4 6
5 7
5 8
6 343
6 267
7 9
7 10
8 344
8 208
9 11
9 12
10 264
10 400
11 13
11 14
12 204
12 146
13 15
13 16
14 396
14 381
15 17
15 18
16 142
16 115
17 19
17 20
18 378
18 326
19 21
19 22
20 112
20 244
21 23
21 24
22 322
22 156
23 25
23 26
24 240
24 80
25 27
25 28
26 152
26 368
27 29
27 30
28 76
28 330
29 31
29 32
30 179
30 182
31 33
31 34
32 116
32 118
33 35
33 36
34 315
34 318
35 37
35 38
36 359
36 362
37 39
37 40
38 224
38 52
39 41
39 42
40 428
40 415
41 43
41 44
42 48
42 164
43 45
43 46
44 412
44 392
45 47
45 48
46 160
46 306
47 49
47 50
48 273
49 51
49 52
50 414
50 429
51 53
51 54
52 223
53 55
53 56
54 426
54 339
55 57
55 58
56 220
56 354
57 59
57 60
58 95
58 98
59 61
59 62
60 450
60 317
61 63
61 64
62 120
62 376
63 65
63 66
64 113
64 116
65 67
65 68
66 182
66 184
67 69
67 70
68 399
68 402
69 71
69 72
70 215
70 218
71 73
71 74
72 337
72 285
73 75
73 76
74 352
74 370
75 77
75 78
76 282
77 79
77 80
78 366
78 154
79 81
79 82
80 444
81 83
81 84
82 147
82 149
83 85
83 86
84 446
84 396
85 87
85 88
86 146
86 160
87 89
87 90
88 392
88 240
89 91
89 92
90 156
90 234
91 93
91 94
92 236
92 262
93 95
93 96
94 230
94 302
95 97
96 258
96 358
97 298
97 336
98 99
98 100
99 101
99 102
100 119
100 122
101 103
101 104
102 347
102 350
103 105
103 106
104 283
104 286
105 107
105 108
106 127
106 130
107 109
107 110
108 434
108 198
109 111
109 112
110 198
110 328
111 113
111 114
112 194
113 115
114 324
114 380
115 314
116 117
117 440
117 442
118 119
118 120
119 121
120 374
121 316
121 457
122 123
122 124
123 125
123 126
124 340
124 170
125 127
125 128
126 348
126 387
127 129
128 166
128 290
129 384
129 408
130 131
130 132
131 133
131 134
132 197
132 200
133 135
133 136
134 185
134 188
135 137
135 138
136 252
136 254
137 139
137 140
138 249
138 252
139 141
139 142
140 188
140 190
141 143
141 144
142 311
143 145
143 146
144 380
144 398
145 147
145 148
147 149
148 394
148 447
149 150
150 151
150 152
151 153
151 154
152 447
153 155
153 156
154 242
155 157
155 158
157 159
157 160
158 238
158 394
159 161
159 162
161 163
161 164
162 390
162 414
163 165
163 166
164 276
165 167
165 168
166 307
167 169
167 170
168 386
168 349
169 171
169 172
170 342
171 173
171 174
172 265
172 268
173 175
173 176
174 291
174 294
175 177
175 178
176 245
176 248
177 179
177 180
178 301
178 217
179 181
180 404
180 333
181 214
181 364
182 183
183 452
183 454
184 185
184 186
185 187
186 304
186 204
187 400
187 434
188 189
189 418
189 420
190 191
190 192
191 193
191 194
192 379
192 329
193 195
193 196
194 312
195 197
195 198
196 326
196 199
197 199
199 449
200 201
200 202
201 203
201 204
202 438
202 401
203 205
203 206
205 207
205 208
206 398
206 266
207 209
207 210
208 230
209 211
209 212
210 262
210 424
211 213
211 214
212 221
212 224
213 215
213 216
214 362
215 217
216 332
216 405
217 304
218 219
218 220
219 221
219 222
220 351
221 223
222 338
222 428
223 226
224 225
225 331
225 334
226 227
226 228
227 229
227 230
228 431
228 264
229 231
229 232
231 233
231 234
232 260
232 238
233 235
233 236
234 236
235 237
235 238
237 239
237 240
239 241
239 242
241 243
241 244
242 324
243 245
243 246
244 361
245 247
246 320
246 298
247 358
247 406
248 249
248 250
249 251
250 403
250 258
251 302
251 418
252 253
253 436
253 438
254 255
254 256
255 257
255 258
256 420
256 303
257 259
257 260
259 261
259 262
260 300
261 263
261 264
263 265
263 266
265 267
266 345
267 346
268 269
268 270
269 271
269 272
270 406
270 373
271 273
271 274
272 292
272 282
273 275
274 370
274 309
275 278
275 388
276 277
276 278
277 279
277 280
278 385
279 281
279 282
280 308
280 372
281 283
281 284
283 285
284 368
284 353
285 340
286 287
286 288
287 289
287 290
288 448
288 386
289 291
289 292
290 310
291 293
292 327
293 372
293 416
294 295
294 296
295 297
295 298
296 422
296 360
297 299
297 300
299 301
299 302
300 356
301 303
303 422
304 305
305 433
305 441
306 307
306 308
307 309
308 413
309 410
310 311
310 312
311 313
312 371
313 328
313 436
314 315
314 316
315 317
316 455
317 452
318 319
318 320
319 321
319 322
320 334
321 323
321 324
322 360
323 325
323 326
325 327
325 328
327 329
329 382
330 331
330 332
331 333
332 442
333 431
334 335
335 429
335 375
336 337
336 338
337 339
338 457
339 432
340 341
341 409
341 451
342 343
342 344
343 345
344 416
346 347
346 348
347 349
348 417
349 450
350 351
350 352
351 353
352 408
353 433
354 355
354 356
355 357
355 358
356 456
357 359
357 360
359 361
361 374
362 363
363 427
363 430
364 365
364 366
365 367
365 368
366 443
367 369
367 370
369 371
369 372
371 373
373 384
374 375
375 453
376 377
376 378
377 379
377 380
378 454
379 381
381 437
382 383
382 384
383 385
383 386
385 387
387 412
388 389
388 390
389 391
389 392
390 415
391 393
391 394
393 395
393 396
395 397
395 398
397 399
397 400
399 401
401 440
402 403
402 404
403 405
404 432
405 423
406 407
407 423
407 417
408 409
409 449
410 411
410 412
411 413
411 414
413 415
416 417
418 419
419 421
419 439
420 421
421 437
422 423
424 425
424 426
425 427
425 428
426 430
427 429
430 431
432 433
434 435
435 439
435 448
436 437
438 439
440 441
441 455
442 443
443 453
444 445
444 446
445 446
445 447
448 449
450 451
451 456
452 453
454 455
456 457
